p cnf 41 100
-1 -32 -4 0
1 -32 4 0
-4 -33 -7 0
4 -33 7 0
-7 -34 -10 0
7 -34 10 0
-10 -35 -13 0
10 -35 13 0
-13 -36 -16 0
13 -36 16 0
-16 -37 -19 0
16 -37 19 0
-19 -38 -22 0
19 -38 22 0
-22 -39 -25 0
22 -39 25 0
-25 -40 -28 0
25 -40 28 0
-28 -41 -31 0
28 -41 31 0
-1 -32 2 0
-2 1 0
-2 32 0
2 -1 4 0
1 -32 3 0
-3 -1 0
-3 32 0
3 1 -4 0
-4 -33 5 0
-5 4 0
-5 33 0
5 -4 7 0
4 -33 6 0
-6 -4 0
-6 33 0
6 4 -7 0
-7 -34 8 0
-8 7 0
-8 34 0
8 -7 10 0
7 -34 9 0
-9 -7 0
-9 34 0
9 7 -10 0
-10 -35 11 0
-11 10 0
-11 35 0
11 -10 13 0
10 -35 12 0
-12 -10 0
-12 35 0
12 10 -13 0
-13 -36 14 0
-14 13 0
-14 36 0
14 -13 16 0
13 -36 15 0
-15 -13 0
-15 36 0
15 13 -16 0
-16 -37 17 0
-17 16 0
-17 37 0
17 -16 19 0
16 -37 18 0
-18 -16 0
-18 37 0
18 16 -19 0
-19 -38 20 0
-20 19 0
-20 38 0
20 -19 22 0
19 -38 21 0
-21 -19 0
-21 38 0
21 19 -22 0
-22 -39 23 0
-23 22 0
-23 39 0
23 -22 25 0
22 -39 24 0
-24 -22 0
-24 39 0
24 22 -25 0
-25 -40 26 0
-26 25 0
-26 40 0
26 -25 28 0
25 -40 27 0
-27 -25 0
-27 40 0
27 25 -28 0
-28 -41 29 0
-29 28 0
-29 41 0
29 -28 31 0
28 -41 30 0
-30 -28 0
-30 41 0
30 28 -31 0
